
Gurobi 7.0.2 (linux64, Matlab) logging started Sun Sep  2 08:55:16 2018


Gurobi 7.0.2 (linux64) logging started Sun Sep  2 08:55:16 2018

Optimize a model with 2116 rows, 157543 columns and 2178871 nonzeros
Coefficient statistics:
  Matrix range     [3e-03, 9e+00]
  Objective range  [2e+00, 8e+00]
  Bounds range     [1e+00, 1e+00]
  RHS range        [1e+00, 2e+01]
Iteration    Objective       Primal Inf.    Dual Inf.      Time
       0    4.8025044e+02   0.000000e+00   0.000000e+00      0s

Solved in 0 iterations and 0.05 seconds
Optimal objective  4.802504384e+02
